Instances/63
c numero: 63
c nombre: n-50-d-0.1
c densidad: 0.1
p edges 50 118
e 1 25
e 1 46
e 2 9
e 2 30
e 2 41
e 3 7
e 3 11
e 3 37
e 3 48
e 4 10
e 4 40
e 5 15
e 5 18
e 5 28
e 5 29
e 5 46
e 5 49
e 6 8
e 6 20
e 6 22
e 6 38
e 7 14
e 7 16
e 7 35
e 7 37
e 7 41
e 8 11
e 8 17
e 8 30
e 9 16
e 9 28
e 9 30
e 9 44
e 10 18
e 10 21
e 11 13
e 11 14
e 11 18
e 11 25
e 11 26
e 11 29
e 12 16
e 12 28
e 12 38
e 12 39
e 12 45
e 13 20
e 13 22
e 13 35
e 13 42
e 14 19
e 14 26
e 14 31
e 14 33
e 15 19
e 15 20
e 15 22
e 15 39
e 15 48
e 16 29
e 16 42
e 17 18
e 17 32
e 17 41
e 17 49
e 17 50
e 18 24
e 18 30
e 18 42
e 18 45
e 18 48
e 19 28
e 19 44
e 19 49
e 20 33
e 20 41
e 20 43
e 20 50
e 21 38
e 22 27
e 22 43
e 22 49
e 23 26
e 23 45
e 24 48
e 25 46
e 25 49
e 26 29
e 26 46
e 27 31
e 27 40
e 27 43
e 29 35
e 29 42
e 29 46
e 30 34
e 30 38
e 31 32
e 31 42
e 32 33
e 32 41
e 32 50
e 33 34
e 33 48
e 33 49
e 34 47
e 36 42
e 36 43
e 41 43
e 41 48
e 41 49
e 42 47
e 43 48
e 45 46
e 45 50
e 47 48
e 47 50
e 49 50
