res_brown_5min/63.out
colores promedio: 4.0000
tiempo promedio: 65.3867
instancias que se pasaron del tiempo: 0
